9076
9398
3674
644
4001
5244
2791
7682
1910
6932
3661
1305
7323
7485
1012
7899
7773
1694
6042
4426
8949
7174
5107
8227
4990
4447
5464
4044
9713
6912
9701
2873
5540
1433
7132
5306
1805
8784
6048
1493
1992
9865
2063
5799
3194
8079
7945
8247
6625
6027
